************************************************************************
file with basedata            : mm47_.bas
initial value random generator: 2027669860
************************************************************************
projects                      :  1
jobs (incl. supersource/sink ):  12
horizon                       :  66
RESOURCES
  - renewable                 :  2   R
  - nonrenewable              :  2   N
  - doubly constrained        :  0   D
************************************************************************
PROJECT INFORMATION:
pronr.  #jobs rel.date duedate tardcost  MPM-Time
    1     10      0       14        8       14
************************************************************************
PRECEDENCE RELATIONS:
jobnr.    #modes  #successors   successors
   0        1          3           1   2   3
   1        3          3           4   7   9
   2        3          2           6   9
   3        3          2           9  10
   4        3          1           5
   5        3          2           6   8
   6        3          1          10
   7        3          1          10
   8        3          1          11
   9        3          1          11
  10        3          1          11
  11        1          0        
************************************************************************
REQUESTS/DURATIONS:
jobnr. mode duration  R 1  R 2  R 3  R 4  E(W 1)  E(W 2)
------------------------------------------------------------------------
  0      1     0       0    0    0    0     0       0
  1      1     2       9    8    7    5    34      24
  2      1     1       2    6    8    7     8      15
  3      1     2       6    8    8   10    28      36
  4      1     4      10   10    8   10    80      72
  5      1     1       9    6    4    2    15       6
  6      1     5       5    6    7   10    55      85
  7      1     5      10   10    3    8    100      55
  8      1     2       6    9    7    8    30      30
  9      1     3       3    6    8    2    27      30
 10      1     2       8    8    8    5    32      26
 11      1     0       0    0    0    0     0       0
************************************************************************
RESOURCEAVAILABILITIES:
  R 1  R 2
   34   120
************************************************************************
RESOURCE LIMITS:
jobnr.  l(R 1)  u(R 1)  l(R 2)  u(R 2)
------------------------------------------------------------------------
  0        0       0       0       0
  1        9      17       7      12
  2        4       8       8      15
  3        7      14       9      18
  4       10      20       9      18
  5        8      15       3       6
  6        6      11       9      17
  7       10      20       6      11
  8        8      15       8      15
  9        5       9       5      10
 10        8      16       7      13
 11        0       0       0       0
************************************************************************
SCENARIOS:
------------------------------------------------------------------------
RESOURCE k = 1
s = 1: (0, 32, 10, 49, 84, 14, 58, 62, 27, 53, 27, 0)
s = 2: (0, 22, 7, 23, 82, 19, 55, 73, 29, 25, 30, 0)
s = 3: (0, 34, 9, 37, 91, 10, 34, 81, 22, 20, 23, 0)
s = 4: (0, 51, 9, 42, 70, 12, 44, 181, 28, 29, 45, 0)
s = 5: (0, 52, 11, 28, 98, 20, 45, 92, 18, 16, 34, 0)
s = 6: (0, 25, 8, 22, 130, 17, 48, 66, 33, 23, 29, 0)
s = 7: (0, 31, 9, 36, 61, 11, 73, 116, 42, 23, 39, 0)
s = 8: (0, 33, 9, 34, 84, 19, 58, 93, 26, 21, 30, 0)
s = 9: (0, 39, 8, 41, 68, 11, 78, 68, 34, 35, 23, 0)
s = 10: (0, 25, 7, 25, 94, 16, 38, 126, 47, 20, 36, 0)
s = 11: (0, 50, 5, 19, 107, 18, 84, 118, 25, 34, 22, 0)
s = 12: (0, 36, 14, 20, 133, 9, 73, 111, 29, 28, 46, 0)
s = 13: (0, 49, 10, 23, 85, 13, 39, 116, 32, 39, 32, 0)
s = 14: (0, 23, 9, 27, 43, 16, 61, 69, 37, 35, 28, 0)
s = 15: (0, 28, 10, 29, 59, 12, 45, 102, 19, 16, 26, 0)
s = 16: (0, 56, 10, 23, 57, 14, 49, 91, 29, 19, 44, 0)
s = 17: (0, 25, 12, 27, 65, 17, 35, 66, 26, 24, 59, 0)
s = 18: (0, 36, 6, 32, 93, 10, 76, 88, 21, 33, 45, 0)
s = 19: (0, 46, 9, 17, 101, 17, 54, 89, 29, 29, 27, 0)
s = 20: (0, 37, 11, 43, 74, 15, 67, 96, 27, 20, 39, 0)
s = 21: (0, 44, 11, 23, 69, 9, 43, 126, 47, 45, 30, 0)
s = 22: (0, 27, 11, 30, 73, 16, 70, 185, 25, 34, 31, 0)
s = 23: (0, 42, 5, 36, 85, 24, 93, 90, 28, 32, 38, 0)
s = 24: (0, 34, 14, 44, 46, 17, 43, 97, 41, 30, 41, 0)
s = 25: (0, 32, 7, 32, 92, 17, 66, 159, 40, 36, 53, 0)
s = 26: (0, 21, 10, 22, 113, 22, 88, 105, 19, 24, 26, 0)
s = 27: (0, 29, 6, 16, 63, 21, 44, 64, 33, 36, 30, 0)
s = 28: (0, 22, 10, 21, 49, 14, 95, 92, 27, 38, 42, 0)
s = 29: (0, 39, 7, 31, 114, 13, 63, 81, 27, 21, 25, 0)
s = 30: (0, 47, 9, 32, 72, 13, 67, 88, 23, 27, 43, 0)
s = 31: (0, 42, 6, 17, 51, 11, 70, 116, 39, 24, 34, 0)
s = 32: (0, 39, 8, 42, 66, 16, 90, 64, 52, 34, 36, 0)
s = 33: (0, 25, 10, 29, 83, 21, 34, 95, 25, 19, 22, 0)
s = 34: (0, 29, 10, 34, 68, 25, 50, 195, 30, 35, 32, 0)
s = 35: (0, 21, 7, 24, 115, 14, 44, 65, 40, 28, 34, 0)
s = 36: (0, 37, 9, 24, 70, 13, 49, 142, 26, 25, 27, 0)
s = 37: (0, 41, 11, 36, 65, 16, 69, 95, 20, 25, 42, 0)
s = 38: (0, 38, 6, 21, 83, 12, 48, 83, 35, 31, 24, 0)
s = 39: (0, 50, 10, 33, 80, 21, 41, 58, 34, 20, 27, 0)
s = 40: (0, 29, 6, 23, 59, 25, 46, 73, 40, 20, 40, 0)
s = 41: (0, 47, 8, 31, 64, 19, 53, 118, 26, 21, 45, 0)
s = 42: (0, 20, 6, 23, 127, 10, 39, 154, 25, 33, 45, 0)
s = 43: (0, 29, 8, 32, 100, 11, 42, 112, 37, 33, 41, 0)
s = 44: (0, 34, 6, 21, 91, 16, 53, 159, 55, 23, 42, 0)
s = 45: (0, 36, 6, 27, 70, 18, 61, 131, 27, 37, 20, 0)
s = 46: (0, 49, 6, 44, 63, 16, 72, 97, 24, 42, 20, 0)
s = 47: (0, 37, 7, 30, 50, 16, 78, 132, 31, 25, 36, 0)
s = 48: (0, 51, 6, 38, 77, 18, 67, 122, 26, 19, 20, 0)
s = 49: (0, 30, 8, 29, 81, 22, 45, 80, 45, 22, 25, 0)
s = 50: (0, 32, 6, 39, 78, 10, 60, 102, 35, 30, 26, 0)
s = 51: (0, 32, 13, 40, 49, 17, 64, 150, 23, 16, 25, 0)
s = 52: (0, 46, 10, 35, 44, 16, 61, 100, 39, 16, 48, 0)
s = 53: (0, 42, 11, 33, 75, 11, 43, 64, 18, 34, 35, 0)
s = 54: (0, 22, 5, 18, 88, 13, 37, 101, 31, 18, 24, 0)
s = 55: (0, 40, 7, 39, 106, 20, 62, 70, 26, 31, 30, 0)
s = 56: (0, 23, 6, 19, 45, 16, 61, 116, 22, 23, 21, 0)
s = 57: (0, 23, 8, 21, 84, 13, 72, 137, 41, 22, 23, 0)
s = 58: (0, 23, 9, 32, 55, 9, 55, 62, 38, 25, 31, 0)
s = 59: (0, 28, 5, 25, 52, 21, 38, 122, 35, 28, 32, 0)
s = 60: (0, 39, 11, 22, 90, 13, 41, 113, 16, 23, 35, 0)
s = 61: (0, 48, 10, 21, 70, 11, 82, 82, 32, 29, 26, 0)
s = 62: (0, 26, 6, 38, 81, 19, 36, 79, 33, 27, 25, 0)
s = 63: (0, 27, 12, 21, 63, 10, 46, 99, 22, 29, 48, 0)
s = 64: (0, 26, 11, 18, 108, 13, 38, 95, 24, 30, 43, 0)
s = 65: (0, 45, 11, 30, 81, 19, 89, 67, 37, 22, 24, 0)
s = 66: (0, 20, 6, 19, 66, 15, 47, 72, 41, 28, 41, 0)
s = 67: (0, 57, 11, 27, 56, 27, 82, 119, 22, 22, 39, 0)
s = 68: (0, 25, 6, 28, 46, 12, 44, 96, 20, 18, 19, 0)
s = 69: (0, 28, 8, 22, 67, 14, 60, 128, 50, 17, 33, 0)
s = 70: (0, 29, 11, 27, 80, 20, 72, 88, 22, 23, 46, 0)
s = 71: (0, 26, 5, 21, 66, 10, 58, 87, 25, 43, 42, 0)
s = 72: (0, 47, 6, 26, 50, 17, 62, 117, 38, 37, 33, 0)
s = 73: (0, 26, 7, 19, 90, 12, 47, 90, 22, 20, 47, 0)
s = 74: (0, 35, 7, 22, 52, 12, 42, 127, 25, 20, 49, 0)
s = 75: (0, 31, 12, 17, 114, 12, 48, 76, 39, 24, 36, 0)
s = 76: (0, 25, 9, 32, 59, 19, 39, 88, 18, 27, 57, 0)
s = 77: (0, 45, 11, 25, 118, 8, 66, 71, 24, 26, 45, 0)
s = 78: (0, 29, 9, 25, 58, 14, 70, 104, 30, 26, 19, 0)
s = 79: (0, 28, 11, 35, 60, 14, 44, 135, 27, 22, 37, 0)
s = 80: (0, 44, 7, 23, 112, 24, 64, 106, 35, 18, 31, 0)
s = 81: (0, 39, 5, 22, 69, 10, 45, 100, 50, 21, 26, 0)
s = 82: (0, 43, 6, 45, 89, 24, 45, 140, 21, 41, 37, 0)
s = 83: (0, 34, 9, 36, 99, 17, 78, 173, 34, 39, 31, 0)
s = 84: (0, 25, 11, 21, 77, 16, 48, 59, 33, 26, 29, 0)
s = 85: (0, 51, 6, 43, 102, 14, 52, 158, 30, 21, 29, 0)
s = 86: (0, 27, 8, 20, 52, 14, 40, 113, 25, 27, 32, 0)
s = 87: (0, 31, 11, 32, 69, 18, 79, 109, 46, 34, 38, 0)
s = 88: (0, 37, 6, 31, 53, 18, 45, 138, 21, 27, 20, 0)
s = 89: (0, 26, 8, 40, 52, 21, 67, 95, 25, 32, 27, 0)
s = 90: (0, 27, 6, 26, 77, 15, 73, 125, 23, 35, 47, 0)
s = 91: (0, 18, 10, 27, 80, 22, 66, 80, 23, 38, 37, 0)
s = 92: (0, 28, 8, 30, 81, 24, 49, 115, 19, 23, 29, 0)
s = 93: (0, 25, 9, 37, 128, 18, 44, 102, 29, 20, 34, 0)
s = 94: (0, 45, 9, 23, 106, 14, 59, 66, 26, 29, 30, 0)
s = 95: (0, 26, 10, 33, 65, 22, 35, 95, 25, 35, 49, 0)
s = 96: (0, 33, 10, 23, 95, 13, 36, 120, 31, 18, 28, 0)
s = 97: (0, 19, 8, 39, 119, 14, 47, 80, 36, 24, 24, 0)
s = 98: (0, 30, 7, 32, 104, 21, 80, 57, 31, 23, 26, 0)
s = 99: (0, 27, 11, 36, 82, 15, 33, 104, 27, 30, 41, 0)
s = 100: (0, 34, 7, 34, 62, 10, 38, 81, 47, 26, 31, 0)
s = 101: (0, 29, 6, 23, 64, 12, 71, 153, 27, 41, 45, 0)
s = 102: (0, 48, 10, 35, 93, 17, 36, 127, 33, 26, 35, 0)
s = 103: (0, 39, 12, 21, 63, 23, 39, 97, 31, 22, 49, 0)
s = 104: (0, 33, 11, 27, 56, 9, 48, 143, 30, 31, 25, 0)
s = 105: (0, 23, 9, 32, 105, 20, 55, 116, 25, 26, 22, 0)
s = 106: (0, 23, 6, 22, 69, 11, 70, 91, 34, 23, 21, 0)
s = 107: (0, 29, 6, 24, 54, 11, 65, 158, 51, 37, 29, 0)
s = 108: (0, 25, 6, 31, 59, 16, 62, 93, 29, 19, 30, 0)
s = 109: (0, 27, 6, 40, 60, 9, 54, 143, 41, 21, 28, 0)
s = 110: (0, 29, 8, 40, 84, 16, 51, 139, 25, 24, 39, 0)
s = 111: (0, 34, 8, 34, 127, 10, 38, 140, 31, 27, 26, 0)
s = 112: (0, 46, 5, 25, 83, 9, 62, 120, 24, 44, 27, 0)
s = 113: (0, 20, 8, 22, 109, 16, 48, 117, 27, 27, 33, 0)
s = 114: (0, 34, 15, 34, 108, 12, 35, 69, 36, 26, 33, 0)
s = 115: (0, 42, 12, 27, 65, 22, 34, 82, 19, 17, 59, 0)
s = 116: (0, 54, 11, 34, 68, 16, 59, 116, 28, 47, 23, 0)
s = 117: (0, 35, 14, 31, 91, 16, 51, 68, 31, 23, 22, 0)
s = 118: (0, 20, 5, 24, 98, 15, 43, 109, 43, 20, 25, 0)
s = 119: (0, 48, 12, 41, 63, 15, 53, 83, 40, 18, 23, 0)
s = 120: (0, 26, 5, 26, 150, 14, 59, 84, 26, 24, 29, 0)
s = 121: (0, 32, 10, 33, 47, 10, 47, 140, 25, 33, 24, 0)
s = 122: (0, 50, 6, 30, 77, 11, 52, 88, 36, 34, 46, 0)
s = 123: (0, 46, 11, 37, 106, 18, 53, 107, 30, 28, 33, 0)
s = 124: (0, 52, 9, 43, 106, 11, 54, 102, 26, 36, 39, 0)
s = 125: (0, 41, 7, 36, 104, 18, 64, 99, 42, 32, 31, 0)
s = 126: (0, 24, 12, 33, 82, 19, 76, 97, 28, 27, 36, 0)
s = 127: (0, 25, 12, 19, 119, 11, 67, 79, 22, 28, 47, 0)
s = 128: (0, 56, 7, 23, 61, 10, 67, 154, 34, 43, 23, 0)
s = 129: (0, 28, 9, 31, 132, 20, 63, 72, 30, 25, 53, 0)
s = 130: (0, 44, 7, 37, 76, 9, 71, 102, 25, 32, 25, 0)
s = 131: (0, 33, 11, 38, 77, 23, 56, 121, 18, 27, 43, 0)
s = 132: (0, 29, 8, 19, 82, 14, 56, 117, 27, 20, 40, 0)
s = 133: (0, 26, 7, 21, 86, 13, 68, 78, 34, 37, 50, 0)
s = 134: (0, 38, 10, 39, 81, 17, 43, 73, 31, 20, 39, 0)
s = 135: (0, 46, 9, 25, 79, 13, 63, 87, 23, 36, 28, 0)
s = 136: (0, 23, 7, 40, 50, 17, 32, 81, 27, 45, 23, 0)
s = 137: (0, 57, 13, 31, 56, 14, 52, 78, 27, 32, 54, 0)
s = 138: (0, 42, 10, 19, 54, 17, 41, 133, 19, 33, 32, 0)
s = 139: (0, 31, 11, 23, 78, 15, 42, 75, 38, 17, 35, 0)
s = 140: (0, 28, 10, 36, 120, 14, 47, 80, 31, 18, 32, 0)
s = 141: (0, 37, 9, 21, 58, 15, 52, 111, 19, 36, 22, 0)
s = 142: (0, 64, 8, 18, 79, 11, 70, 82, 29, 34, 31, 0)
s = 143: (0, 34, 12, 35, 54, 14, 55, 133, 48, 19, 36, 0)
s = 144: (0, 29, 10, 31, 76, 14, 50, 158, 33, 19, 30, 0)
s = 145: (0, 27, 6, 19, 64, 16, 54, 85, 33, 24, 33, 0)
s = 146: (0, 24, 6, 27, 105, 11, 66, 75, 38, 23, 33, 0)
s = 147: (0, 26, 10, 27, 76, 21, 49, 86, 45, 30, 41, 0)
s = 148: (0, 37, 8, 29, 66, 13, 67, 100, 42, 36, 33, 0)
s = 149: (0, 29, 11, 41, 65, 9, 73, 108, 16, 42, 39, 0)
s = 150: (0, 41, 8, 34, 142, 13, 68, 74, 30, 29, 29, 0)
s = 151: (0, 35, 8, 18, 112, 17, 53, 128, 27, 36, 36, 0)
s = 152: (0, 48, 11, 33, 119, 10, 65, 71, 26, 15, 26, 0)
s = 153: (0, 28, 9, 30, 95, 12, 72, 126, 25, 23, 31, 0)
s = 154: (0, 43, 11, 22, 104, 22, 33, 127, 16, 26, 37, 0)
s = 155: (0, 29, 7, 31, 76, 18, 54, 139, 28, 24, 21, 0)
s = 156: (0, 37, 6, 24, 101, 16, 83, 109, 27, 27, 44, 0)
s = 157: (0, 21, 9, 27, 86, 17, 76, 150, 28, 28, 21, 0)
s = 158: (0, 21, 6, 26, 88, 24, 45, 143, 21, 24, 20, 0)
s = 159: (0, 35, 9, 18, 106, 14, 53, 67, 32, 15, 42, 0)
s = 160: (0, 54, 6, 16, 94, 11, 32, 88, 18, 18, 38, 0)
s = 161: (0, 36, 8, 20, 56, 18, 36, 69, 24, 49, 21, 0)
s = 162: (0, 40, 6, 36, 83, 23, 57, 73, 31, 26, 23, 0)
s = 163: (0, 25, 7, 24, 71, 14, 71, 66, 29, 26, 25, 0)
s = 164: (0, 33, 11, 27, 58, 16, 37, 102, 24, 36, 38, 0)
s = 165: (0, 20, 11, 28, 107, 19, 55, 137, 40, 25, 38, 0)
s = 166: (0, 27, 9, 30, 83, 11, 64, 97, 43, 29, 21, 0)
s = 167: (0, 27, 6, 42, 76, 11, 36, 60, 24, 25, 42, 0)
s = 168: (0, 40, 12, 20, 52, 16, 61, 79, 27, 27, 27, 0)
s = 169: (0, 39, 13, 18, 121, 10, 60, 119, 26, 31, 48, 0)
s = 170: (0, 38, 7, 33, 111, 13, 61, 66, 31, 33, 30, 0)
s = 171: (0, 21, 9, 21, 60, 15, 42, 128, 34, 38, 28, 0)
s = 172: (0, 25, 6, 33, 51, 25, 78, 80, 21, 24, 41, 0)
s = 173: (0, 33, 6, 20, 91, 11, 66, 93, 22, 25, 24, 0)
s = 174: (0, 26, 7, 30, 113, 10, 77, 116, 35, 27, 31, 0)
s = 175: (0, 19, 7, 43, 96, 16, 37, 116, 19, 26, 34, 0)
s = 176: (0, 46, 9, 18, 88, 13, 53, 121, 24, 29, 26, 0)
s = 177: (0, 44, 8, 24, 85, 10, 61, 89, 33, 18, 40, 0)
s = 178: (0, 27, 8, 46, 45, 18, 51, 101, 38, 25, 30, 0)
s = 179: (0, 29, 5, 45, 96, 20, 58, 70, 33, 31, 25, 0)
s = 180: (0, 29, 6, 38, 102, 15, 62, 170, 23, 32, 20, 0)
s = 181: (0, 39, 11, 40, 96, 19, 47, 78, 32, 28, 21, 0)
s = 182: (0, 22, 10, 21, 67, 12, 58, 112, 22, 20, 38, 0)
s = 183: (0, 46, 13, 33, 86, 15, 67, 91, 39, 29, 32, 0)
s = 184: (0, 28, 6, 20, 163, 11, 57, 137, 27, 35, 37, 0)
s = 185: (0, 32, 8, 23, 91, 22, 45, 130, 30, 29, 36, 0)
s = 186: (0, 45, 11, 35, 68, 20, 41, 84, 25, 15, 34, 0)
s = 187: (0, 28, 7, 36, 60, 16, 37, 164, 18, 45, 23, 0)
s = 188: (0, 48, 9, 38, 70, 20, 45, 73, 37, 28, 26, 0)
s = 189: (0, 33, 7, 22, 75, 22, 74, 92, 30, 38, 23, 0)
s = 190: (0, 49, 8, 37, 65, 9, 64, 120, 36, 24, 30, 0)
s = 191: (0, 33, 11, 25, 119, 17, 54, 106, 31, 23, 46, 0)
s = 192: (0, 23, 8, 35, 80, 14, 62, 65, 29, 15, 33, 0)
s = 193: (0, 35, 10, 28, 106, 14, 63, 88, 23, 40, 47, 0)
s = 194: (0, 44, 10, 34, 76, 16, 52, 124, 48, 16, 22, 0)
s = 195: (0, 32, 9, 23, 80, 24, 52, 66, 32, 25, 30, 0)
s = 196: (0, 29, 13, 42, 78, 27, 46, 100, 30, 23, 23, 0)
s = 197: (0, 36, 13, 17, 112, 16, 62, 132, 22, 26, 39, 0)
s = 198: (0, 35, 11, 37, 119, 18, 52, 93, 38, 29, 32, 0)
s = 199: (0, 20, 7, 35, 109, 9, 60, 150, 26, 18, 26, 0)
s = 200: (0, 31, 9, 18, 83, 12, 47, 111, 25, 34, 30, 0)
------------------------------------------------------------------------
RESOURCE k = 2
s = 1: (0, 23, 19, 63, 76, 6, 89, 35, 27, 58, 22, 0)
s = 2: (0, 16, 14, 29, 74, 8, 85, 40, 29, 27, 24, 0)
s = 3: (0, 24, 16, 47, 82, 4, 52, 45, 22, 23, 19, 0)
s = 4: (0, 36, 16, 54, 63, 5, 68, 100, 28, 32, 37, 0)
s = 5: (0, 37, 21, 36, 88, 8, 69, 51, 18, 18, 28, 0)
s = 6: (0, 18, 14, 29, 117, 7, 73, 37, 33, 26, 23, 0)
s = 7: (0, 22, 17, 46, 55, 5, 112, 64, 42, 25, 32, 0)
s = 8: (0, 23, 16, 43, 75, 8, 90, 52, 26, 23, 24, 0)
s = 9: (0, 27, 15, 52, 61, 5, 120, 38, 34, 39, 19, 0)
s = 10: (0, 18, 13, 32, 85, 7, 59, 69, 47, 22, 30, 0)
s = 11: (0, 36, 9, 24, 97, 7, 130, 65, 25, 38, 18, 0)
s = 12: (0, 26, 26, 26, 120, 4, 112, 61, 29, 31, 38, 0)
s = 13: (0, 35, 17, 30, 77, 5, 61, 64, 32, 44, 26, 0)
s = 14: (0, 16, 17, 35, 39, 7, 94, 38, 37, 38, 22, 0)
s = 15: (0, 20, 17, 37, 53, 5, 69, 56, 19, 18, 21, 0)
s = 16: (0, 40, 19, 29, 52, 6, 76, 51, 29, 21, 36, 0)
s = 17: (0, 18, 21, 35, 58, 7, 55, 37, 26, 27, 48, 0)
s = 18: (0, 26, 11, 41, 84, 4, 117, 48, 21, 37, 37, 0)
s = 19: (0, 33, 16, 21, 91, 7, 83, 49, 29, 32, 22, 0)
s = 20: (0, 27, 20, 55, 66, 6, 104, 53, 27, 22, 32, 0)
s = 21: (0, 31, 20, 29, 62, 4, 66, 70, 47, 50, 25, 0)
s = 22: (0, 19, 20, 39, 66, 7, 108, 102, 25, 38, 25, 0)
s = 23: (0, 30, 9, 46, 77, 10, 143, 50, 28, 35, 31, 0)
s = 24: (0, 24, 25, 56, 41, 7, 65, 54, 41, 33, 33, 0)
s = 25: (0, 23, 13, 42, 83, 7, 102, 88, 40, 40, 43, 0)
s = 26: (0, 15, 18, 28, 102, 9, 135, 58, 19, 27, 21, 0)
s = 27: (0, 20, 11, 20, 57, 9, 68, 36, 33, 40, 25, 0)
s = 28: (0, 15, 19, 27, 44, 6, 147, 51, 27, 42, 35, 0)
s = 29: (0, 28, 13, 40, 103, 6, 98, 45, 27, 23, 20, 0)
s = 30: (0, 33, 16, 41, 65, 5, 104, 49, 23, 30, 35, 0)
s = 31: (0, 30, 12, 22, 46, 5, 108, 64, 39, 27, 28, 0)
s = 32: (0, 28, 14, 54, 59, 7, 139, 35, 52, 37, 30, 0)
s = 33: (0, 18, 18, 37, 74, 9, 52, 52, 25, 21, 18, 0)
s = 34: (0, 21, 19, 44, 62, 10, 77, 108, 30, 39, 26, 0)
s = 35: (0, 15, 14, 30, 103, 6, 67, 36, 40, 32, 28, 0)
s = 36: (0, 26, 16, 30, 63, 5, 75, 78, 26, 27, 22, 0)
s = 37: (0, 29, 20, 46, 58, 7, 107, 52, 20, 28, 35, 0)
s = 38: (0, 27, 10, 26, 74, 5, 75, 46, 35, 34, 19, 0)
s = 39: (0, 35, 18, 42, 72, 9, 62, 32, 34, 22, 22, 0)
s = 40: (0, 20, 12, 30, 54, 10, 70, 40, 40, 22, 33, 0)
s = 41: (0, 33, 15, 39, 58, 8, 82, 65, 26, 23, 37, 0)
s = 42: (0, 14, 11, 29, 115, 4, 60, 85, 25, 37, 36, 0)
s = 43: (0, 21, 14, 41, 90, 5, 64, 62, 37, 36, 33, 0)
s = 44: (0, 24, 10, 27, 82, 7, 81, 88, 55, 25, 35, 0)
s = 45: (0, 26, 11, 35, 63, 7, 94, 72, 27, 41, 16, 0)
s = 46: (0, 35, 10, 57, 57, 7, 111, 54, 24, 47, 16, 0)
s = 47: (0, 26, 13, 38, 45, 7, 120, 73, 31, 28, 29, 0)
s = 48: (0, 36, 11, 49, 69, 8, 103, 67, 26, 21, 16, 0)
s = 49: (0, 21, 14, 37, 73, 9, 69, 44, 45, 24, 20, 0)
s = 50: (0, 23, 11, 49, 70, 4, 93, 57, 35, 33, 21, 0)
s = 51: (0, 22, 23, 52, 44, 7, 99, 83, 23, 18, 21, 0)
s = 52: (0, 32, 18, 45, 40, 7, 95, 55, 39, 18, 39, 0)
s = 53: (0, 30, 20, 42, 67, 5, 66, 36, 18, 38, 29, 0)
s = 54: (0, 16, 9, 23, 80, 6, 57, 56, 31, 19, 20, 0)
s = 55: (0, 29, 13, 49, 96, 8, 95, 39, 26, 34, 25, 0)
s = 56: (0, 16, 11, 25, 41, 7, 95, 64, 22, 25, 18, 0)
s = 57: (0, 16, 15, 26, 75, 5, 111, 76, 41, 24, 19, 0)
s = 58: (0, 16, 16, 41, 49, 4, 85, 34, 38, 27, 25, 0)
s = 59: (0, 20, 10, 33, 47, 9, 58, 67, 35, 31, 26, 0)
s = 60: (0, 28, 21, 28, 81, 5, 64, 62, 16, 26, 28, 0)
s = 61: (0, 34, 18, 27, 63, 5, 127, 45, 32, 32, 21, 0)
s = 62: (0, 18, 11, 49, 73, 8, 56, 44, 33, 30, 21, 0)
s = 63: (0, 19, 23, 27, 57, 4, 71, 55, 22, 32, 39, 0)
s = 64: (0, 19, 21, 24, 97, 6, 59, 52, 24, 33, 35, 0)
s = 65: (0, 32, 20, 39, 73, 8, 137, 37, 37, 25, 19, 0)
s = 66: (0, 14, 12, 25, 59, 6, 72, 40, 41, 31, 33, 0)
s = 67: (0, 40, 21, 35, 50, 11, 127, 66, 22, 25, 32, 0)
s = 68: (0, 18, 10, 36, 41, 5, 68, 53, 20, 20, 15, 0)
s = 69: (0, 20, 15, 28, 60, 6, 93, 71, 50, 19, 27, 0)
s = 70: (0, 21, 20, 35, 72, 8, 110, 49, 22, 26, 37, 0)
s = 71: (0, 18, 9, 27, 59, 4, 89, 48, 25, 47, 34, 0)
s = 72: (0, 33, 10, 33, 45, 7, 96, 65, 38, 41, 27, 0)
s = 73: (0, 19, 12, 24, 81, 5, 73, 50, 22, 22, 38, 0)
s = 74: (0, 25, 12, 28, 46, 5, 65, 70, 25, 22, 40, 0)
s = 75: (0, 22, 22, 22, 102, 5, 74, 42, 39, 27, 29, 0)
s = 76: (0, 18, 16, 41, 54, 8, 60, 49, 18, 30, 47, 0)
s = 77: (0, 32, 21, 32, 106, 4, 101, 39, 24, 29, 36, 0)
s = 78: (0, 20, 16, 31, 53, 6, 108, 58, 30, 29, 15, 0)
s = 79: (0, 20, 20, 44, 54, 6, 67, 75, 27, 24, 30, 0)
s = 80: (0, 31, 13, 29, 101, 10, 98, 58, 35, 20, 25, 0)
s = 81: (0, 28, 9, 28, 62, 4, 70, 55, 50, 23, 21, 0)
s = 82: (0, 31, 10, 58, 80, 10, 69, 77, 21, 46, 30, 0)
s = 83: (0, 24, 17, 46, 89, 7, 120, 95, 34, 43, 25, 0)
s = 84: (0, 17, 20, 26, 70, 7, 73, 33, 33, 29, 24, 0)
s = 85: (0, 36, 11, 55, 91, 6, 80, 87, 30, 23, 23, 0)
s = 86: (0, 19, 14, 26, 47, 6, 62, 62, 25, 30, 26, 0)
s = 87: (0, 22, 20, 41, 62, 7, 121, 60, 46, 37, 31, 0)
s = 88: (0, 26, 10, 39, 48, 7, 70, 76, 21, 30, 17, 0)
s = 89: (0, 19, 14, 51, 47, 9, 103, 53, 25, 36, 22, 0)
s = 90: (0, 19, 10, 33, 69, 6, 113, 69, 23, 39, 38, 0)
s = 91: (0, 13, 17, 34, 72, 9, 102, 44, 23, 42, 30, 0)
s = 92: (0, 20, 14, 38, 73, 10, 76, 64, 19, 26, 24, 0)
s = 93: (0, 18, 16, 47, 115, 7, 68, 57, 29, 22, 27, 0)
s = 94: (0, 32, 16, 29, 95, 6, 90, 37, 26, 32, 24, 0)
s = 95: (0, 18, 19, 43, 58, 9, 54, 53, 25, 39, 40, 0)
s = 96: (0, 24, 18, 29, 86, 6, 55, 66, 31, 19, 23, 0)
s = 97: (0, 14, 15, 50, 107, 6, 73, 44, 36, 26, 20, 0)
s = 98: (0, 21, 12, 40, 93, 9, 123, 32, 31, 26, 21, 0)
s = 99: (0, 19, 21, 46, 74, 6, 51, 57, 27, 33, 34, 0)
s = 100: (0, 24, 13, 43, 56, 4, 59, 45, 47, 29, 25, 0)
s = 101: (0, 20, 10, 29, 58, 5, 109, 85, 27, 46, 36, 0)
s = 102: (0, 34, 19, 45, 84, 7, 55, 70, 33, 29, 28, 0)
s = 103: (0, 28, 21, 27, 56, 9, 60, 53, 31, 25, 40, 0)
s = 104: (0, 24, 21, 35, 51, 4, 75, 79, 30, 34, 20, 0)
s = 105: (0, 16, 16, 41, 94, 8, 85, 64, 25, 29, 18, 0)
s = 106: (0, 16, 10, 29, 62, 5, 108, 50, 34, 26, 17, 0)
s = 107: (0, 21, 10, 30, 49, 5, 100, 87, 51, 41, 24, 0)
s = 108: (0, 18, 11, 40, 54, 7, 95, 52, 29, 22, 24, 0)
s = 109: (0, 19, 11, 51, 54, 4, 84, 79, 41, 24, 23, 0)
s = 110: (0, 21, 14, 52, 76, 7, 78, 76, 25, 27, 32, 0)
s = 111: (0, 24, 15, 43, 115, 4, 58, 77, 31, 30, 22, 0)
s = 112: (0, 32, 8, 32, 74, 4, 95, 66, 24, 48, 22, 0)
s = 113: (0, 15, 14, 29, 98, 7, 75, 65, 27, 30, 27, 0)
s = 114: (0, 24, 27, 43, 97, 5, 54, 38, 36, 29, 27, 0)
s = 115: (0, 29, 21, 35, 59, 9, 52, 45, 19, 19, 48, 0)
s = 116: (0, 38, 21, 43, 61, 7, 91, 64, 28, 52, 19, 0)
s = 117: (0, 25, 27, 40, 82, 7, 79, 38, 31, 26, 18, 0)
s = 118: (0, 14, 10, 31, 88, 6, 67, 60, 43, 22, 20, 0)
s = 119: (0, 34, 23, 53, 57, 6, 81, 46, 40, 20, 19, 0)
s = 120: (0, 18, 9, 33, 135, 6, 91, 46, 26, 27, 24, 0)
s = 121: (0, 23, 19, 43, 42, 4, 73, 77, 25, 37, 20, 0)
s = 122: (0, 35, 10, 39, 70, 5, 80, 49, 36, 38, 38, 0)
s = 123: (0, 33, 21, 47, 95, 8, 82, 59, 30, 31, 27, 0)
s = 124: (0, 37, 16, 55, 95, 5, 83, 56, 26, 40, 32, 0)
s = 125: (0, 29, 12, 46, 93, 7, 98, 55, 42, 35, 25, 0)
s = 126: (0, 17, 21, 42, 74, 8, 118, 53, 28, 30, 29, 0)
s = 127: (0, 18, 21, 24, 107, 5, 103, 44, 22, 31, 39, 0)
s = 128: (0, 40, 13, 29, 55, 4, 104, 85, 34, 47, 19, 0)
s = 129: (0, 20, 16, 40, 119, 8, 96, 40, 30, 28, 43, 0)
s = 130: (0, 31, 12, 47, 68, 4, 109, 56, 25, 36, 20, 0)
s = 131: (0, 23, 20, 49, 69, 9, 86, 67, 18, 30, 35, 0)
s = 132: (0, 21, 14, 25, 73, 6, 87, 65, 27, 22, 33, 0)
s = 133: (0, 18, 13, 27, 77, 5, 105, 43, 34, 41, 40, 0)
s = 134: (0, 27, 19, 51, 73, 7, 66, 40, 31, 22, 32, 0)
s = 135: (0, 33, 16, 32, 71, 6, 97, 48, 23, 39, 23, 0)
s = 136: (0, 16, 13, 51, 45, 7, 49, 45, 27, 50, 19, 0)
s = 137: (0, 41, 24, 39, 50, 6, 79, 43, 27, 35, 44, 0)
s = 138: (0, 30, 18, 25, 48, 7, 62, 73, 19, 37, 26, 0)
s = 139: (0, 22, 19, 30, 70, 6, 64, 42, 38, 19, 28, 0)
s = 140: (0, 20, 19, 46, 108, 6, 72, 44, 31, 20, 26, 0)
s = 141: (0, 26, 17, 27, 52, 6, 80, 61, 19, 40, 18, 0)
s = 142: (0, 45, 14, 22, 71, 5, 108, 45, 29, 38, 25, 0)
s = 143: (0, 24, 22, 44, 49, 6, 85, 73, 48, 21, 29, 0)
s = 144: (0, 21, 19, 40, 68, 6, 77, 87, 33, 21, 24, 0)
s = 145: (0, 19, 11, 25, 57, 7, 84, 47, 33, 26, 27, 0)
s = 146: (0, 17, 10, 34, 95, 5, 102, 41, 38, 25, 27, 0)
s = 147: (0, 18, 18, 35, 68, 9, 75, 48, 45, 33, 34, 0)
s = 148: (0, 27, 15, 38, 59, 5, 104, 55, 42, 39, 27, 0)
s = 149: (0, 21, 20, 53, 59, 4, 112, 59, 16, 47, 32, 0)
s = 150: (0, 29, 14, 43, 127, 6, 105, 41, 30, 32, 24, 0)
s = 151: (0, 25, 14, 23, 101, 7, 81, 71, 27, 40, 29, 0)
s = 152: (0, 34, 21, 43, 107, 4, 100, 39, 26, 16, 21, 0)
s = 153: (0, 20, 16, 39, 85, 5, 111, 69, 25, 26, 26, 0)
s = 154: (0, 30, 20, 28, 94, 9, 51, 70, 16, 29, 30, 0)
s = 155: (0, 21, 13, 40, 68, 8, 83, 77, 28, 27, 17, 0)
s = 156: (0, 26, 10, 31, 91, 7, 128, 60, 27, 30, 36, 0)
s = 157: (0, 15, 17, 34, 77, 7, 118, 82, 28, 31, 17, 0)
s = 158: (0, 15, 11, 34, 80, 10, 69, 79, 21, 27, 17, 0)
s = 159: (0, 25, 16, 23, 96, 6, 81, 37, 32, 17, 34, 0)
s = 160: (0, 38, 11, 20, 85, 5, 50, 49, 18, 20, 31, 0)
s = 161: (0, 25, 14, 26, 50, 8, 55, 38, 24, 54, 17, 0)
s = 162: (0, 28, 11, 46, 75, 9, 88, 41, 31, 28, 19, 0)
s = 163: (0, 18, 13, 30, 64, 6, 110, 37, 29, 29, 21, 0)
s = 164: (0, 23, 20, 34, 52, 7, 58, 56, 24, 40, 31, 0)
s = 165: (0, 14, 20, 36, 97, 8, 85, 76, 40, 28, 31, 0)
s = 166: (0, 19, 17, 38, 75, 5, 99, 54, 43, 32, 17, 0)
s = 167: (0, 19, 10, 54, 69, 5, 55, 33, 24, 27, 34, 0)
s = 168: (0, 28, 22, 26, 47, 7, 93, 44, 27, 30, 22, 0)
s = 169: (0, 27, 24, 23, 109, 4, 93, 66, 26, 34, 39, 0)
s = 170: (0, 27, 13, 43, 100, 5, 95, 37, 31, 36, 24, 0)
s = 171: (0, 15, 17, 27, 54, 6, 64, 70, 34, 42, 23, 0)
s = 172: (0, 18, 10, 43, 46, 10, 120, 44, 21, 27, 33, 0)
s = 173: (0, 23, 11, 25, 82, 5, 102, 51, 22, 28, 20, 0)
s = 174: (0, 18, 12, 39, 102, 4, 119, 64, 35, 30, 25, 0)
s = 175: (0, 13, 13, 55, 87, 7, 57, 64, 19, 29, 28, 0)
s = 176: (0, 33, 16, 23, 79, 6, 82, 67, 24, 33, 21, 0)
s = 177: (0, 31, 15, 31, 77, 4, 94, 49, 33, 20, 33, 0)
s = 178: (0, 19, 15, 59, 41, 8, 79, 56, 38, 28, 25, 0)
s = 179: (0, 20, 10, 58, 87, 8, 89, 39, 33, 35, 21, 0)
s = 180: (0, 21, 11, 48, 92, 6, 96, 94, 23, 35, 16, 0)
s = 181: (0, 28, 21, 52, 86, 8, 72, 43, 32, 31, 17, 0)
s = 182: (0, 15, 18, 27, 60, 5, 89, 62, 22, 22, 31, 0)
s = 183: (0, 32, 25, 42, 78, 6, 103, 50, 39, 32, 26, 0)
s = 184: (0, 20, 11, 26, 147, 5, 88, 76, 27, 39, 30, 0)
s = 185: (0, 22, 15, 30, 82, 9, 69, 72, 30, 32, 30, 0)
s = 186: (0, 32, 21, 45, 61, 8, 64, 47, 25, 16, 27, 0)
s = 187: (0, 20, 13, 46, 54, 7, 57, 91, 18, 50, 18, 0)
s = 188: (0, 34, 17, 49, 63, 8, 69, 41, 37, 31, 21, 0)
s = 189: (0, 24, 13, 29, 67, 9, 114, 51, 30, 42, 19, 0)
s = 190: (0, 34, 14, 47, 59, 4, 98, 66, 36, 26, 25, 0)
s = 191: (0, 23, 21, 32, 107, 7, 83, 59, 31, 26, 37, 0)
s = 192: (0, 16, 15, 45, 72, 6, 96, 36, 29, 17, 27, 0)
s = 193: (0, 25, 18, 35, 96, 6, 98, 49, 23, 45, 38, 0)
s = 194: (0, 31, 18, 44, 69, 7, 80, 68, 48, 17, 18, 0)
s = 195: (0, 23, 16, 29, 72, 10, 81, 36, 32, 27, 24, 0)
s = 196: (0, 21, 24, 54, 70, 11, 70, 55, 30, 25, 19, 0)
s = 197: (0, 25, 23, 22, 101, 7, 96, 73, 22, 28, 32, 0)
s = 198: (0, 25, 20, 47, 107, 7, 80, 51, 38, 33, 26, 0)
s = 199: (0, 14, 12, 44, 99, 4, 92, 83, 26, 20, 21, 0)
s = 200: (0, 22, 16, 23, 75, 5, 73, 61, 25, 37, 25, 0)
************************************************************************
ES/LS-VALUES:
jobnr.   ES(i)    LS(i)
------------------------------------------------------------------------
  0        0        0
  1        0       38
  2        0       51
  3        0       56
  4        3       42
  5       11       51
  6       12       53
  7        3       52
  8       12       62
  9        3       60
 10       20       62
 11       23       66
************************************************************************
BIG-M-VALUES:
M1 = 38, M2 = 310
************************************************************************
